c Output_time 26.03.2020 18:15:25_+0100 1585242925055305512
c ** Program information **
c program_name                          "QBRG_debug"
c version                               "0.3.20"
c date                                  "25.3.2020"
c gid_id                                "673970833836058123f633335630c185360d632e"
c author                                "Oliver Kullmann"
c url                                   "https://github.com/OKullmann/oklibrary/blob/master/Satisfiability/Transformers/Generators/Random/QBRG.cpp"
c ** Machine information **
c machine_name                          "chyna-Lenovo-G50-70"
c bogomips                              3791.08
c ** Compilation information **
c compiler_version                      "g++ 7.5.0"
c compilation_date                      "Mar_26_2020 11:16:30"
c compilation_options                   "--std=c++17 -pedantic -fmax-errors=5 -Wall -Wextra -g -D_GLIBCXX_DEBUG"
c NDEBUG                                0
c OPTIMIZE                              0
c ** Parameters **
c command-line                          "./QBRG_debug" "a40 e40 a40 40" "511*1,1|2-2,1|3-3,1|4-4,1" "" "1,t" ""
c output                                "QuBlRaGe_160_511_1585242925055146274.qdimacs"
c options                               "filtered,renamed"
c num_quantifier_blocks                 4
c  quantifier_blocks                    1:a1-40 2:e41-80 3:a81-120 4:e121-160
c num_clause-blocks                     1
c  clause-blocks                        511 * {1-40,1,1/2} | {41-80,1,1/2} | {81-120,1,1/2} | {121-160,1,1/2}
c num_e-seeds                           37+2=39
c  e-seeds                              1 0 1 0 5 160 2 40 0 40 1 40 0 40 1 511 4 1 1 1 1 2 2 2 1 1 2 3 3 1 1 2 4 4 1 1 2 1 1585242925055145391
p cnf 160 511
a 1 2 3 4 5 6 7 8 9 10 11 12 13 14 15 16 17 18 19 20 21 22 23 24 25 26 27 28 29 30 31 32 33 34 35 36 37 38 39 40 0
e 41 42 43 44 45 46 47 48 49 50 51 52 53 54 55 56 57 58 59 60 61 62 63 64 65 66 67 68 69 70 71 72 73 74 75 76 77 78 79 80 0
a 81 82 83 84 85 86 87 88 89 90 91 92 93 94 95 96 97 98 99 100 101 102 103 104 105 106 107 108 109 110 111 112 113 114 115 116 117 118 119 120 0
e 121 122 123 124 125 126 127 128 129 130 131 132 133 134 135 136 137 138 139 140 141 142 143 144 145 146 147 148 149 150 151 152 153 154 155 156 157 158 159 160 0
-36 -52 -92 -121 0
20 62 -92 -121 0
18 69 -93 -121 0
-19 71 102 -121 0
-23 74 -109 -121 0
-5 61 116 -121 0
9 -46 118 -121 0
-14 -80 120 -121 0
3 -52 -85 121 0
-29 -65 89 121 0
-15 -46 94 121 0
3 -51 -118 121 0
-11 41 -119 121 0
-7 -71 120 121 0
36 -49 -82 -122 0
19 69 83 -122 0
8 72 86 -122 0
2 44 92 -122 0
-13 -52 94 -122 0
4 75 -108 -122 0
-18 -47 111 -122 0
19 -46 118 -122 0
-15 -65 -85 122 0
-17 -47 -91 122 0
20 -46 -99 122 0
5 66 99 122 0
-14 -46 -102 122 0
14 -58 119 122 0
9 60 -85 -123 0
13 57 100 -123 0
28 73 -103 -123 0
-38 56 108 -123 0
-35 -80 117 -123 0
9 50 -84 123 0
11 58 -86 123 0
30 47 98 123 0
24 -48 101 123 0
19 46 -102 123 0
-8 -53 108 123 0
25 42 -109 123 0
-31 -77 120 123 0
-33 -63 89 -124 0
2 45 -98 -124 0
-29 57 -99 -124 0
-3 -50 -118 -124 0
-33 59 -82 124 0
6 -70 -83 124 0
29 80 -86 124 0
-16 42 86 124 0
7 -62 -88 124 0
-11 -50 109 124 0
-38 -47 111 124 0
-38 54 119 124 0
10 -56 -82 -125 0
-24 50 92 -125 0
3 -58 92 -125 0
38 61 -113 -125 0
-1 -60 -81 125 0
-33 47 82 125 0
5 46 91 -126 0
-9 -58 93 -126 0
-4 -65 93 -126 0
29 -53 96 -126 0
-2 58 98 -126 0
3 -61 103 -126 0
-29 43 -104 -126 0
24 59 -104 -126 0
36 69 -107 -126 0
30 44 -110 -126 0
38 -50 -115 -126 0
27 -80 -81 126 0
-9 -79 84 126 0
38 -65 88 126 0
-37 66 88 126 0
-24 -55 104 126 0
-1 76 -116 126 0
-37 -77 118 126 0
33 -44 -81 -127 0
-31 -73 -89 -127 0
6 54 -101 -127 0
-25 -46 104 -127 0
-5 64 -111 -127 0
-9 -65 112 -127 0
6 -74 113 -127 0
-6 -56 119 -127 0
11 68 -82 127 0
-8 55 -87 127 0
14 -77 99 127 0
-17 65 104 127 0
10 64 -85 -128 0
-3 60 85 -128 0
-37 -79 -87 -128 0
-36 -45 87 -128 0
-18 74 -95 -128 0
-3 -57 109 -128 0
-37 62 115 -128 0
1 -43 -118 -128 0
-6 79 -82 128 0
9 43 -86 128 0
-15 64 86 128 0
12 53 97 128 0
-19 48 100 128 0
22 -75 -101 128 0
3 -77 -105 128 0
6 79 106 128 0
-15 -56 116 128 0
40 -43 -84 -129 0
-38 -74 -92 -129 0
-33 -64 -95 -129 0
-34 49 100 -129 0
-8 -65 104 -129 0
19 -41 -107 -129 0
-31 62 -108 -129 0
-6 -62 -109 -129 0
-8 -64 -113 -129 0
9 -71 113 -129 0
-24 77 -114 -129 0
-13 74 -118 -129 0
9 56 90 129 0
-18 -58 -100 129 0
-32 -48 101 129 0
32 74 -103 129 0
-34 48 113 129 0
30 52 105 -130 0
-17 66 116 -130 0
-34 -48 -120 -130 0
28 -65 -110 130 0
38 -45 -111 130 0
34 48 -111 130 0
-23 -60 87 -131 0
-9 -80 -100 -131 0
18 45 -106 -131 0
13 -77 106 -131 0
23 52 -110 -131 0
-15 -42 -113 -131 0
-14 -52 114 -131 0
22 66 -120 -131 0
8 -60 120 -131 0
-21 70 -81 131 0
29 63 92 131 0
12 -44 95 131 0
3 43 -114 131 0
2 58 83 -132 0
3 50 -88 -132 0
-6 67 94 -132 0
10 -60 -81 132 0
-33 -75 -83 132 0
-18 -71 -93 132 0
35 41 106 132 0
-1 -68 -110 132 0
25 -73 114 132 0
39 75 -115 132 0
-40 -80 116 132 0
-12 -69 -119 132 0
32 -79 119 132 0
14 61 85 -133 0
15 -62 85 -133 0
-18 -62 85 -133 0
9 -66 92 -133 0
34 73 -95 -133 0
-13 45 -114 -133 0
20 55 -116 -133 0
-33 -78 92 133 0
-3 -71 -95 133 0
-12 43 -103 133 0
-31 80 -105 133 0
-2 -44 -109 133 0
-4 49 -113 133 0
11 78 116 133 0
-33 -41 84 -134 0
17 -58 -89 -134 0
20 -59 89 -134 0
22 71 -92 -134 0
-36 48 98 -134 0
3 45 -101 -134 0
22 -63 107 -134 0
21 78 -110 -134 0
-4 -73 -96 134 0
40 74 -99 134 0
33 -56 -110 134 0
36 51 115 134 0
-29 56 83 -135 0
-12 63 -88 -135 0
23 -78 -94 -135 0
-2 47 101 -135 0
-25 44 -107 -135 0
38 79 -112 -135 0
19 48 112 -135 0
-14 67 82 135 0
-26 -43 86 135 0
-38 -46 -88 135 0
-28 69 89 135 0
4 -75 -95 135 0
8 48 -102 135 0
-4 -53 103 135 0
-35 80 -104 135 0
-33 46 -105 135 0
-21 64 -113 135 0
15 64 -87 -136 0
-9 -47 91 -136 0
-25 61 97 -136 0
-40 80 102 -136 0
31 52 116 -136 0
-27 77 85 136 0
-13 47 86 136 0
-17 44 -92 136 0
1 -47 102 136 0
12 67 -120 136 0
-33 -75 91 -137 0
-36 -80 93 -137 0
-37 76 -97 -137 0
8 65 -103 -137 0
13 52 -107 -137 0
26 -72 -108 -137 0
38 51 111 -137 0
32 -68 120 -137 0
-25 60 -82 137 0
-32 71 -96 137 0
-15 54 -101 137 0
-39 67 -101 137 0
-6 -70 -104 137 0
-30 -67 109 137 0
31 48 -86 -138 0
-2 -65 87 -138 0
5 -62 90 -138 0
-38 41 100 -138 0
-25 -53 -101 -138 0
-23 -44 -109 -138 0
-26 -46 -113 -138 0
34 71 -116 -138 0
-17 43 -97 138 0
13 -68 97 138 0
-8 -67 108 138 0
6 73 117 138 0
18 -73 118 138 0
-30 -53 -84 -139 0
33 -56 86 -139 0
11 -68 86 -139 0
13 52 -102 -139 0
-20 -70 -106 -139 0
-18 -80 107 -139 0
-13 75 113 -139 0
27 -54 119 -139 0
-11 45 -94 139 0
-26 43 -99 139 0
-2 56 109 139 0
-40 48 -114 139 0
-24 42 119 139 0
-6 65 120 139 0
-22 63 -90 -140 0
-15 76 95 -140 0
-26 78 99 -140 0
1 -61 106 -140 0
39 -73 -115 -140 0
24 44 -120 -140 0
6 71 -120 -140 0
-26 -78 81 140 0
-19 75 -87 140 0
20 47 88 140 0
-16 -79 88 140 0
5 67 89 140 0
-26 57 -91 140 0
-35 69 101 140 0
29 41 -112 140 0
33 41 -116 140 0
-12 -55 -97 -141 0
36 65 -101 -141 0
-20 -48 101 -141 0
-34 -78 103 -141 0
30 63 107 -141 0
3 51 111 -141 0
8 -51 118 -141 0
-24 -72 101 141 0
40 75 -106 141 0
4 69 -98 -142 0
29 -60 102 -142 0
30 -43 -103 -142 0
-34 -75 -111 -142 0
-3 -47 -113 -142 0
39 56 115 -142 0
-15 68 -86 142 0
34 -71 90 142 0
-25 -73 94 142 0
-7 48 96 142 0
-28 -42 97 142 0
21 -59 99 142 0
2 42 102 142 0
-8 -47 -82 -143 0
24 -62 -94 -143 0
-20 50 -98 -143 0
32 -44 110 -143 0
-32 51 -113 -143 0
3 -47 -81 143 0
37 61 -81 143 0
35 76 81 143 0
-25 -77 84 143 0
10 -43 -90 143 0
-23 -69 -96 143 0
-7 65 109 143 0
8 50 120 143 0
9 -76 90 -144 0
-31 -46 -106 -144 0
-33 67 82 144 0
-35 -44 -99 144 0
7 46 104 144 0
-21 -45 111 144 0
-4 -71 -115 144 0
-38 -75 -115 144 0
15 -68 116 144 0
24 64 -81 -145 0
23 -80 -83 -145 0
-24 72 -89 -145 0
7 59 95 -145 0
-12 57 -102 -145 0
-13 59 103 -145 0
17 -42 -117 -145 0
-4 -63 -87 145 0
-37 72 97 145 0
20 -49 101 145 0
37 71 113 145 0
27 -47 89 -146 0
-20 -65 93 -146 0
39 -75 -96 -146 0
12 -48 -109 -146 0
32 58 -117 -146 0
-17 80 84 146 0
34 49 86 146 0
23 -52 -88 146 0
-23 57 88 146 0
-38 52 91 146 0
-5 -54 92 146 0
-28 -57 98 146 0
-19 -51 101 146 0
26 57 -113 146 0
-1 53 114 146 0
-31 -68 -85 -147 0
26 -71 -85 -147 0
11 -51 -90 -147 0
-7 65 -91 -147 0
-9 -44 91 -147 0
-20 -48 93 -147 0
19 51 111 -147 0
21 -74 -118 -147 0
4 -71 81 147 0
8 -45 84 147 0
-34 -49 -85 147 0
-7 -73 106 147 0
21 -47 112 147 0
29 -65 -118 147 0
-1 54 89 -148 0
-34 78 -91 -148 0
32 57 95 -148 0
9 59 -96 -148 0
14 -62 -107 -148 0
9 66 -109 -148 0
-32 57 -110 -148 0
-36 49 114 -148 0
-17 -64 115 -148 0
-8 -80 -119 -148 0
22 73 -84 148 0
9 69 85 148 0
-11 60 -87 148 0
-33 -78 90 148 0
-14 -53 92 148 0
23 -49 108 148 0
36 80 109 148 0
14 76 82 -149 0
-27 -65 -89 -149 0
-15 49 -90 -149 0
36 53 -94 -149 0
9 -63 -94 -149 0
-36 68 -94 -149 0
-25 -70 -98 -149 0
-32 -74 -98 -149 0
16 -68 98 -149 0
31 -62 -101 -149 0
-33 -70 -106 -149 0
26 -63 107 -149 0
-12 50 -112 -149 0
13 49 85 149 0
-23 -56 88 149 0
7 67 90 149 0
-33 65 96 149 0
-28 43 -99 149 0
6 -62 100 149 0
40 69 -102 149 0
-35 49 88 -150 0
-15 -47 95 -150 0
39 50 -96 -150 0
-21 55 97 -150 0
28 58 98 -150 0
31 -59 101 -150 0
18 71 -110 -150 0
-4 -66 116 -150 0
-35 78 120 -150 0
38 51 -81 150 0
4 70 -82 150 0
-12 -69 89 150 0
28 -54 97 150 0
39 -57 107 150 0
30 -44 -109 150 0
-29 -44 -82 -151 0
-36 52 -88 -151 0
1 56 88 -151 0
19 66 90 -151 0
-34 58 94 -151 0
-30 -47 108 -151 0
-34 -49 -84 151 0
20 62 84 151 0
-29 69 85 151 0
8 -54 95 151 0
22 -58 -98 151 0
32 77 108 151 0
36 66 112 151 0
28 45 -113 151 0
25 44 -81 -152 0
37 -74 90 -152 0
28 -67 94 -152 0
20 48 101 -152 0
-13 68 -115 -152 0
-33 -65 120 -152 0
-40 -66 120 -152 0
-18 -41 82 152 0
20 -58 88 152 0
6 -47 95 152 0
-38 -42 -120 152 0
37 69 -95 -153 0
-37 -46 104 -153 0
-21 -76 114 -153 0
-17 55 116 -153 0
32 -75 96 153 0
-20 54 -108 153 0
-28 72 -108 153 0
10 -72 -120 153 0
12 76 98 -154 0
7 -64 99 -154 0
27 -57 -104 -154 0
24 -45 107 -154 0
21 -74 -109 -154 0
-35 78 -96 154 0
-35 -49 104 154 0
-18 -43 106 154 0
-3 48 -83 -155 0
20 55 83 -155 0
-24 61 -85 -155 0
29 -69 -113 -155 0
-19 -59 -115 -155 0
-28 70 85 155 0
-26 62 86 155 0
-1 -44 -88 155 0
-29 53 89 155 0
-40 63 89 155 0
24 73 -94 155 0
-18 50 -103 155 0
35 41 106 155 0
23 -63 -109 155 0
-14 58 119 155 0
-12 -72 -89 -156 0
3 -63 -102 -156 0
2 -42 104 -156 0
40 -66 108 -156 0
8 -59 -111 -156 0
-34 62 120 -156 0
17 66 -84 156 0
-29 -73 85 156 0
3 57 -90 156 0
-21 72 93 156 0
1 51 -101 156 0
12 78 -110 156 0
-3 -61 86 -157 0
2 -43 95 -157 0
-39 -63 -112 -157 0
1 -78 -113 -157 0
-12 78 120 -157 0
18 59 85 157 0
13 76 101 157 0
8 -65 104 157 0
6 80 -105 157 0
-1 -76 106 157 0
13 62 -115 157 0
-8 80 -117 157 0
-14 -64 -89 -158 0
25 -63 -93 -158 0
1 78 94 -158 0
11 -72 -100 -158 0
-9 41 103 -158 0
3 68 103 -158 0
-4 -76 104 -158 0
23 46 -105 -158 0
38 60 82 158 0
24 79 -85 158 0
30 41 92 158 0
-38 -45 -94 158 0
-18 -62 94 158 0
20 -74 -102 158 0
13 -75 112 158 0
-16 -49 115 158 0
31 77 117 158 0
23 -45 119 158 0
20 79 -88 -159 0
-34 61 93 -159 0
-11 -46 -95 -159 0
7 -57 106 -159 0
21 79 108 -159 0
-19 -47 -94 159 0
21 57 -109 159 0
-21 64 -89 -160 0
-30 51 -102 -160 0
-12 53 -94 160 0
-29 -51 -100 160 0
25 57 114 160 0
